Problem:    
Rows:       256
Columns:    89 (72 integer, 72 binary)
Non-zeros:  800
Status:     INTEGER OPTIMAL
Objective:  value = 2.779044 (MINimum)

   No.   Row name        Activity     Lower bound   Upper bound
------ ------------    ------------- ------------- -------------
     1 r.5                   2.77904             0               
     2 r.6                     1.096      -999.688               
     3 r.7                   1002.78             0               
     4 r.8                  -999.019      -999.183               
     5 r.9                   2.77904             0               
     6 r.10                 -999.616       -999.64               
     7 r.11                  1002.78             0               
     8 r.12                 -998.056      -999.037               
     9 r.13                  1002.78             0               
    10 r.14                 -999.244      -999.507               
    11 r.15                  2.77904             0               
    12 r.16                  1.94394      -998.689               
    13 r.17                  1002.78             0               
    14 r.18                 -999.737       -999.76               
    15 r.19                  2.77904             0               
    16 r.20                 -999.325      -999.348               
    17 r.21                  1002.78             0               
    18 r.22                 -998.904       -999.66               
    19 r.23                  2.77904             0               
    20 r.24                    1.096      -998.976               
    21 r.25                  1002.78             0               
    22 r.26                 -999.976      -999.976               
    23 r.27                  2.77904             0               
    24 r.28                   0.0237      -999.943               
    25 r.29                  1002.78             0               
    26 r.30                 -998.056      -999.152               
    27 r.31                  2.77904             0               
    28 r.32                  2.77904      -997.784               
    29 r.33                  1002.78             0               
    30 r.34                 -997.221      -999.165               
    31 r.35                  2.77904             0               
    32 r.36                  2.77904      -997.799               
    33 r.37                        1             1             = 
    34 r.38                        1             1             = 
    35 r.39                        1             1             = 
    36 r.40                        1             1             = 
    37 r.41                        1             1             = 
    38 r.42                        1             1             = 
    39 r.43                        1             1             = 
    40 r.44                        1             1             = 
    41 r.45                     1000             2               
    42 r.46                    -1000         -1001               
    43 r.47                  999.288       -999.64               
    44 r.48                        2             2               
    45 r.49                       -2         -1001               
    46 r.50                 -999.037      -999.037               
    47 r.51                     1001             2               
    48 r.52                    -1001         -1001               
    49 r.53                  1999.66      -999.507               
    50 r.54                     1001             2               
    51 r.55                    -1001         -1001               
    52 r.56                  2000.96      -998.689               
    53 r.57                     1001             2               
    54 r.58                    -1001         -1001               
    55 r.59                  1999.17       -999.76               
    56 r.60                     1001             2               
    57 r.61                    -1001         -1001               
    58 r.62                  999.694      -999.348               
    59 r.63                     1001             2               
    60 r.64                    -1001         -1001               
    61 r.65                     2000       -999.66               
    62 r.66                     1001             2               
    63 r.67                    -1001         -1001               
    64 r.68                  2000.11      -998.976               
    65 r.69                   1.0723      -999.688               
    66 r.70                 -999.042      -999.183               
    67 r.71                   1.0723      -999.688               
    68 r.72                 -999.042      -999.183               
    69 r.73                 -999.152      -999.152               
    70 r.74                  1.68304      -997.784               
    71 r.75                 -999.037      -999.152               
    72 r.76                  1.79779      -997.784               
    73 r.77                     1001             2               
    74 r.78                    -1001         -1001               
    75 r.79                  2001.68      -999.165               
    76 r.80                     1001             2               
    77 r.81                    -1001         -1001               
    78 r.82                   2001.8      -997.799               
    79 r.83                     1000             2               
    80 r.84                    -1000         -1001               
    81 r.85                  3000.71      0.311989               
    82 r.86                        2             2               
    83 r.87                       -2         -1001               
    84 r.88                  999.037      0.817394               
    85 r.89                     1001             2               
    86 r.90                    -1001         -1001               
    87 r.91                  3000.37      -999.507               
    88 r.92                     1001             2               
    89 r.93                    -1001         -1001               
    90 r.94                     2000      -998.689               
    91 r.95                     1001             2               
    92 r.96                    -1001         -1001               
    93 r.97                  2999.88       -999.76               
    94 r.98                     1001             2               
    95 r.99                    -1001         -1001               
    96 r.100                 998.731      -999.348               
    97 r.101                    1001             2               
    98 r.102                   -1001         -1001               
    99 r.103                 3000.71       -999.66               
   100 r.104                    1001             2               
   101 r.105                   -1001         -1001               
   102 r.106                 1999.15      -998.976               
   103 r.107                 -999.64       -999.64               
   104 r.108                 -998.08      -999.037               
   105 r.109                 -999.64       -999.64               
   106 r.110                 -998.08      -999.037               
   107 r.111                    1001             2               
   108 r.112                   -1001         -1001               
   109 r.113                 3001.56      -999.152               
   110 r.114                    1001             2               
   111 r.115                   -1001         -1001               
   112 r.116                 2000.84      -997.784               
   113 r.117                 2.39497      -999.165               
   114 r.118                 1002.39      -997.799               
   115 r.119                -999.165      -999.165               
   116 r.120                  0.8351      -997.799               
   117 r.121                    1001             2               
   118 r.122                   -1001         -1001               
   119 r.123                 2000.34      0.311989               
   120 r.124                    1001             2               
   121 r.125                   -1001         -1001               
   122 r.126                 1999.04      0.817394               
   123 r.127                    1001             2               
   124 r.128                   -1001         -1001               
   125 r.129                 999.628      0.360378               
   126 r.130                    1001             2               
   127 r.131                   -1001         -1001               
   128 r.132                    2000      0.962692               
   129 r.133                -999.507      -999.507               
   130 r.134                 1.68054      -998.689               
   131 r.135                0.081068      -999.507               
   132 r.136                 1001.27      -998.689               
   133 r.137                       2             2               
   134 r.138                      -2         -1001               
   135 r.139                 -999.66       -999.66               
   136 r.140                    1000             2               
   137 r.141                   -1000         -1001               
   138 r.142                 1999.15      -998.976               
   139 r.143                -999.267      -999.507               
   140 r.144                 1.92024      -998.689               
   141 r.145                -999.267      -999.507               
   142 r.146                 1.92024      -998.689               
   143 r.147                       2             2               
   144 r.148                      -2         -1001               
   145 r.149                -998.812      -999.152               
   146 r.150                    1000             2               
   147 r.151                   -1000         -1001               
   148 r.152                 2000.84      -997.784               
   149 r.153                -997.977      -999.165               
   150 r.154                 2.02264      -997.799               
   151 r.155                -999.165      -999.165               
   152 r.156                  0.8351      -997.799               
   153 r.157                    1001             2               
   154 r.158                   -1001         -1001               
   155 r.159                 2000.83      0.311989               
   156 r.160                    1001             2               
   157 r.161                   -1001         -1001               
   158 r.162                 3000.31      0.817394               
   159 r.163                    1001             2               
   160 r.164                   -1001         -1001               
   161 r.165                 1000.12      0.360378               
   162 r.166                    1001             2               
   163 r.167                   -1001         -1001               
   164 r.168                 3001.27      0.962692               
   165 r.169                       2             2               
   166 r.170                      -2         -1001               
   167 r.171                -999.167       -999.66               
   168 r.172                    1000             2               
   169 r.173                   -1000         -1001               
   170 r.174                 3000.42      -998.976               
   171 r.175                 -999.76       -999.76               
   172 r.176                -999.348      -999.348               
   173 r.177                 -999.76       -999.76               
   174 r.178                -999.348      -999.348               
   175 r.179                       2             2               
   176 r.180                      -2         -1001               
   177 r.181                -998.319      -999.152               
   178 r.182                    1000             2               
   179 r.183                   -1000         -1001               
   180 r.184                  3002.1      -997.784               
   181 r.185                -997.484      -999.165               
   182 r.186                 2.51564      -997.799               
   183 r.187                 2.10371      -999.165               
   184 r.188                  1002.1      -997.799               
   185 r.189                    1001             2               
   186 r.190                   -1001         -1001               
   187 r.191                    2000      0.311989               
   188 r.192                    1001             2               
   189 r.193                   -1001         -1001               
   190 r.194                 1999.89      0.817394               
   191 r.195                    1001             2               
   192 r.196                   -1001         -1001               
   193 r.197                 999.288      0.360378               
   194 r.198                    1001             2               
   195 r.199                   -1001         -1001               
   196 r.200                 2000.85      0.962692               
   197 r.201                       2             2               
   198 r.202                      -2         -1001               
   199 r.203                  999.66         0.493               
   200 r.204                    1000             2               
   201 r.205                   -1000         -1001               
   202 r.206                 2000.85       1.31087               
   203 r.207                       2             2               
   204 r.208                      -2         -1001               
   205 r.209                 999.167        0.2397               
   206 r.210                    1000             2               
   207 r.211                   -1000         -1001               
   208 r.212                 999.579      0.651632               
   209 r.213                -998.928       -999.66               
   210 r.214                  1.0723      -998.976               
   211 r.215                -998.928       -999.66               
   212 r.216                  1.0723      -998.976               
   213 r.217                -999.152      -999.152               
   214 r.218                 1.68304      -997.784               
   215 r.219                -999.152      -999.152               
   216 r.220                 1.68304      -997.784               
   217 r.221                -998.317      -999.165               
   218 r.222                 1.68304      -997.799               
   219 r.223                -998.317      -999.165               
   220 r.224                 1.68304      -997.799               
   221 r.225                    1001             2               
   222 r.226                   -1001         -1001               
   223 r.227                  998.44      0.360378               
   224 r.228                    1001             2               
   225 r.229                   -1001         -1001               
   226 r.230                 1999.16      0.962692               
   227 r.231                       2             2               
   228 r.232                      -2         -1001               
   229 r.233                 998.812         0.493               
   230 r.234                    1000             2               
   231 r.235                   -1000         -1001               
   232 r.236                 1999.16       1.31087               
   233 r.237                       2             2               
   234 r.238                      -2         -1001               
   235 r.239                 998.319        0.2397               
   236 r.240                    1000             2               
   237 r.241                   -1000         -1001               
   238 r.242                 997.896      0.651632               
   239 r.243                       2             2               
   240 r.244                      -2         -1001               
   241 r.245                -999.165      -999.165               
   242 r.246                    1000             2               
   243 r.247                   -1000         -1001               
   244 r.248                    2000      -997.799               
   245 r.249                    1001             2               
   246 r.250                   -1001         -1001               
   247 r.251                 1998.32      0.311989               
   248 r.252                    1001             2               
   249 r.253                   -1001         -1001               
   250 r.254                  1998.2      0.817394               
   251 r.255                       2             2               
   252 r.256                      -2         -1001               
   253 r.257                 999.165      0.847944               
   254 r.258                    1000             2               
   255 r.259                   -1000         -1001               
   256 r.260                    2000       2.21608               

   No. Column name       Activity     Lower bound   Upper bound
------ ------------    ------------- ------------- -------------
     1 tt                    2.77904             0               
     2 s_1_1        *              0             0             1 
     3 t_1_1                 1.68304             0               
     4 s_1_7        *              1             0             1 
     5 s_2_1        *              1             0             1 
     6 t_2_1                 1.79779             0               
     7 s_2_7        *              0             0             1 
     8 s_1_2        *              0             0             1 
     9 t_1_2                 1002.39             0               
    10 s_1_8        *              1             0             1 
    11 s_2_2        *              1             0             1 
    12 t_2_2                  0.8351             0               
    13 s_2_8        *              0             0             1 
    14 s_1_3        *              1             0             1 
    15 t_1_3                 2.02264             0               
    16 s_2_3        *              0             0             1 
    17 t_2_3                  0.8351             0               
    18 s_1_4        *              1             0             1 
    19 t_1_4                 2.51564             0               
    20 s_2_4        *              0             0             1 
    21 t_2_4                  1002.1             0               
    22 s_1_5        *              1             0             1 
    23 t_1_5                 1.68304             0               
    24 s_2_5        *              0             0             1 
    25 t_2_5                 1.68304             0               
    26 s_1_6        *              1             0             1 
    27 t_1_6                 2.75534             0               
    28 s_2_6        *              0             0             1 
    29 t_2_6                 2.75534             0               
    30 t_1_7                  0.8351             0               
    31 t_2_7                       0             0               
    32 t_1_8                       0             0               
    33 t_2_8                       0             0               
    34 r_1_1_2      *              1             0             1 
    35 u_1_1_2      *              0             0             1 
    36 r_2_1_2      *              0             0             1 
    37 u_2_1_2      *              1             0             1 
    38 r_1_1_3      *              1             0             1 
    39 u_1_1_3      *              0             0             1 
    40 r_2_1_3      *              1             0             1 
    41 u_2_1_3      *              0             0             1 
    42 r_1_1_4      *              1             0             1 
    43 u_1_1_4      *              0             0             1 
    44 r_2_1_4      *              1             0             1 
    45 u_2_1_4      *              0             0             1 
    46 r_1_1_5      *              1             0             1 
    47 u_1_1_5      *              0             0             1 
    48 r_2_1_5      *              1             0             1 
    49 u_2_1_5      *              0             0             1 
    50 r_1_1_8      *              1             0             1 
    51 u_1_1_8      *              0             0             1 
    52 r_2_1_8      *              1             0             1 
    53 u_2_1_8      *              0             0             1 
    54 r_1_2_3      *              1             0             1 
    55 u_1_2_3      *              0             0             1 
    56 r_2_2_3      *              1             0             1 
    57 u_2_2_3      *              0             0             1 
    58 r_1_2_4      *              1             0             1 
    59 u_1_2_4      *              0             0             1 
    60 r_2_2_4      *              1             0             1 
    61 u_2_2_4      *              0             0             1 
    62 r_1_2_5      *              1             0             1 
    63 u_1_2_5      *              0             0             1 
    64 r_2_2_5      *              1             0             1 
    65 u_2_2_5      *              0             0             1 
    66 r_1_2_7      *              1             0             1 
    67 u_1_2_7      *              0             0             1 
    68 r_2_2_7      *              1             0             1 
    69 u_2_2_7      *              0             0             1 
    70 r_1_3_5      *              0             0             1 
    71 u_1_3_5      *              1             0             1 
    72 r_2_3_5      *              1             0             1 
    73 u_2_3_5      *              0             0             1 
    74 r_1_3_7      *              0             0             1 
    75 u_1_3_7      *              1             0             1 
    76 r_2_3_7      *              1             0             1 
    77 u_2_3_7      *              0             0             1 
    78 r_1_4_5      *              0             0             1 
    79 u_1_4_5      *              1             0             1 
    80 r_2_4_5      *              1             0             1 
    81 u_2_4_5      *              0             0             1 
    82 r_1_4_7      *              0             0             1 
    83 u_1_4_7      *              1             0             1 
    84 r_2_4_7      *              1             0             1 
    85 u_2_4_7      *              0             0             1 
    86 r_1_7_8      *              0             0             1 
    87 u_1_7_8      *              1             0             1 
    88 r_2_7_8      *              1             0             1 
    89 u_2_7_8      *              0             0             1 

Integer feasibility conditions:

KKT.PE: max.abs.err = 4.55e-13 on row 87
        max.rel.err = 7.57e-17 on row 87
        High quality

KKT.PB: max.abs.err = 0.00e+00 on row 0
        max.rel.err = 0.00e+00 on row 0
        High quality

End of output
